
Gurobi 6.5.2 (linux64) logging started Mon Aug 29 10:57:53 2016

Optimize a model with 101 rows, 663 columns and 1347 nonzeros
Coefficient statistics:
  Matrix range    [1e+00, 2e+00]
  Objective range [1e+00, 1e+02]
  Bounds range    [1e+00, 1e+00]
  RHS range       [1e+00, 1e+00]
Found heuristic solution: objective 2458
Presolve removed 42 rows and 33 columns
Presolve time: 0.00s
Presolved: 59 rows, 630 columns, 1266 nonzeros
Variable types: 0 continuous, 630 integer (630 binary)

Root relaxation: objective 8.375000e+02, 74 iterations, 0.00 seconds

    Nodes    |    Current Node    |     Objective Bounds      |     Work
 Expl Unexpl |  Obj  Depth IntInf | Incumbent    BestBd   Gap | It/Node Time

     0     0  837.50000    0    8 2458.00000  837.50000  65.9%     -    0s
H    0     0                     965.0000000  837.50000  13.2%     -    0s
H    0     0                     931.0000000  837.50000  10.0%     -    0s
H    0     0                     913.0000000  837.50000  8.27%     -    0s
H    0     0                     847.0000000  837.50000  1.12%     -    0s
     0     0  842.50000    0    6  847.00000  842.50000  0.53%     -    0s
     0     0     cutoff    0       847.00000  846.00085  0.12%     -    0s

Explored 0 nodes (118 simplex iterations) in 0.02 seconds
Thread count was 8 (of 8 available processors)

Optimal solution found (tolerance 1.00e-04)
Best objective 8.470000000000e+02, best bound 8.470000000000e+02, gap 0.0%
